SAT
-46 -47 64 -150 103 55 -37 36 94 -91 148 92 -107 143 109 121 -5 -1 116 33 137 -56 124 48 -96 106 76 28 -66 86 -97 40 131 -41 -136 3 -54 -75 -130 51 -128 90 149 110 -79 -10 -70 126 119 69 -52 67 82 134 -112 141 -19 -145 -53 6 98 -32 16 44 -83 -20 -80 -21 24 113 -127 -14 101 -123 139 65 -84 34 138 100 -29 -120 45 78 -13 42 60 61 102 129 -68 58 -140 147 -89 27 -135 -118 -104 105 9 85 35 -71 12 2 93 -122 18 99 -114 95 -77 62 11 -39 -26 72 -81 -108 63 -115 -25 7 59 117 111 23 74 57 8 -146 87 50 -132 -125 -38 88 49 -4 43 15 133 -144 -17 142 30 -73 31 -22 0
